130
100
14
17
25
3
19
4
15
10
1
20
12
1
7
4
19
6
5
7
14
19
2
2
18
17
17
8
20
5
16
1
15
21
5
10
17
24
9
11
2
24
20
10
24
3
10
11
5
10
2
3
2
25
6
2
7
6
10
16
23
5
2
23
15
10
24
9
15
3
19
9
19
15
22
2
6
25
8
1
24
7
5
3
6
10
8
22
3
17
6
13
22
20
1
6
12
21
20
2
21
10
6
11
15
14
1
16
25
7
17
4
6
8
2
19
14
3
8
3
18
24
9
16
4
19
22
18
3
25
8
3
